SAT
-8 -47 77 -30 -71 -59 -42 -16 -98 -6 -84 -52 66 -80 -11 -18 91 48 -5 99 44 25 74 21 46 17 2 65 -86 67 -51 -43 -62 -94 -24 27 -14 -49 63 33 -40 -87 56 72 95 92 55 -1 41 -73 -35 76 -100 75 -39 -4 36 -57 -88 -9 -13 23 78 19 -81 -96 -28 89 -58 37 20 15 50 -60 -93 -64 -10 61 -3 -69 -82 53 7 -29 54 38 -70 83 -45 79 -22 -31 12 -90 -68 32 34 -85 -26 -97 0
